unsat
(forall ((A (_ BitVec 2))
         (B (_ BitVec 1))
         (C (_ BitVec 2))
         (D (_ BitVec 6))
         (E (_ BitVec 2))
         (F (_ BitVec 6))
         (G (_ BitVec 6))
         (H (_ BitVec 6))
         (I (_ BitVec 1))
         (J (_ BitVec 8))
         (K (_ BitVec 2))
         (L (_ BitVec 1))
         (M (_ BitVec 2))
         (N (_ BitVec 32))
         (O (_ BitVec 6))
         (P (_ BitVec 2))
         (Q (_ BitVec 2))
         (R (_ BitVec 6))
         (S (_ BitVec 2))
         (T (_ BitVec 1))
         (U (_ BitVec 6))
         (V (_ BitVec 6))
         (W (_ BitVec 32))
         (X (_ BitVec 2))
         (Y (_ BitVec 2))
         (Z (_ BitVec 2))
         (A1 (_ BitVec 1))
         (B1 (_ BitVec 8))
         (C1 (_ BitVec 2))
         (D1 (_ BitVec 2))
         (E1 (_ BitVec 2))
         (F1 (_ BitVec 6))
         (G1 (_ BitVec 6))
         (H1 (_ BitVec 2))
         (I1 (_ BitVec 2))
         (J1 (_ BitVec 6))
         (K1 (_ BitVec 6))
         (L1 (_ BitVec 2))
         (M1 (_ BitVec 2))
         (N1 (_ BitVec 32))
         (O1 (_ BitVec 2))
         (P1 (_ BitVec 5))
         (Q1 (_ BitVec 1))
         (R1 (_ BitVec 1))
         (S1 (_ BitVec 1))
         (T1 (_ BitVec 1))
         (U1 (_ BitVec 2))
         (V1 (_ BitVec 3))
         (W1 (_ BitVec 2))
         (X1 (_ BitVec 2))
         (Y1 (_ BitVec 32))
         (Z1 (_ BitVec 1))
         (A2 (_ BitVec 1))
         (B2 (_ BitVec 1))
         (C2 (_ BitVec 1))
         (D2 (_ BitVec 8))
         (E2 (_ BitVec 2))
         (F2 (_ BitVec 6))
         (G2 (_ BitVec 2))
         (H2 (_ BitVec 6))
         (I2 (_ BitVec 2))
         (J2 (_ BitVec 6))
         (K2 (_ BitVec 2))
         (L2 (_ BitVec 6))
         (M2 (_ BitVec 2))
         (N2 (_ BitVec 1))
         (O2 (_ BitVec 32))
         (P2 (_ BitVec 32))
         (Q2 (_ BitVec 6))
         (R2 (_ BitVec 6))
         (S2 (_ BitVec 2))
         (T2 (_ BitVec 2))
         (U2 (_ BitVec 6))
         (V2 (_ BitVec 6)))
  (! (let ((a!1 (or (not ((_ bit2bool 29) N))
                    (not ((_ bit2bool 25) N))
                    (not (= ((_ extract 1 1) Q) #b1))
                    (not (= I #b1))
                    (= ((_ extract 29 24) W) #b111111)
                    (not ((_ bit2bool 27) N))
                    (not ((_ bit2bool 26) N))
                    (not ((_ bit2bool 24) N))
                    (not ((_ bit2bool 28) N))))
           (a!2 (or (= ((_ extract 15 12) N) #xf)
                    (not ((_ bit2bool 13) W))
                    (not (= ((_ extract 1 1) Q) #b1))
                    (not (= I #b1))
                    (not ((_ bit2bool 15) W))
                    (not ((_ bit2bool 12) W))
                    (not ((_ bit2bool 14) W))))
           (a!3 (or (not ((_ bit2bool 25) N))
                    (not ((_ bit2bool 22) N))
                    (not (= ((_ extract 1 1) Q) #b1))
                    (not (= I #b1))
                    (= ((_ extract 26 22) W) #b11111)
                    (not ((_ bit2bool 26) N))
                    (not ((_ bit2bool 24) N))
                    (not ((_ bit2bool 23) N))))
           (a!4 (or (= ((_ extract 5 0) N) #b111111)
                    (not (= ((_ extract 1 1) Q) #b1))
                    (not (= I #b1))
                    (not ((_ bit2bool 3) W))
                    (not ((_ bit2bool 4) W))
                    (not ((_ bit2bool 1) W))
                    (not ((_ bit2bool 2) W))
                    (not ((_ bit2bool 5) W))
                    (not ((_ bit2bool 0) W))))
           (a!5 (or (not ((_ bit2bool 29) W))
                    (not (= ((_ extract 1 1) Q) #b1))
                    (not (= I #b1))
                    (= ((_ extract 31 28) N) #xf)
                    (not ((_ bit2bool 28) W))
                    (not ((_ bit2bool 30) W))
                    (not ((_ bit2bool 31) W))))
           (a!6 (or (= O #b111111)
                    (not (= ((_ extract 1 1) Q) #b1))
                    (not (= I #b1))
                    (not (= G #b111111))))
           (a!7 (or (not (= ((_ extract 1 1) Q) #b1))
                    (not (= I #b1))
                    (= G #b111111)
                    (not (= O #b111111))))
           (a!8 (or (not ((_ bit2bool 29) W))
                    (not (= ((_ extract 1 1) Q) #b1))
                    (not (= I #b1))
                    (= ((_ extract 31 27) N) #b11111)
                    (not ((_ bit2bool 28) W))
                    (not ((_ bit2bool 27) W))
                    (not ((_ bit2bool 30) W))
                    (not ((_ bit2bool 31) W))))
           (a!9 (or (not (= ((_ extract 1 1) Q) #b1))
                    (not (= I #b1))
                    (= ((_ extract 15 13) W) #b111)
                    (not ((_ bit2bool 14) N))
                    (not ((_ bit2bool 13) N))
                    (not ((_ bit2bool 15) N))))
           (a!10 (or (not ((_ bit2bool 21) N))
                     (not ((_ bit2bool 22) N))
                     (not (= ((_ extract 1 1) Q) #b1))
                     (not (= I #b1))
                     (= ((_ extract 23 21) W) #b111)
                     (not ((_ bit2bool 23) N))))
           (a!11 (or (not ((_ bit2bool 12) N))
                     (not (= ((_ extract 1 1) Q) #b1))
                     (not (= I #b1))
                     (= ((_ extract 14 10) W) #b11111)
                     (not ((_ bit2bool 14) N))
                     (not ((_ bit2bool 13) N))
                     (not ((_ bit2bool 11) N))
                     (not ((_ bit2bool 10) N))))
           (a!12 (or (not ((_ bit2bool 4) N))
                     (not ((_ bit2bool 1) N))
                     (not (= ((_ extract 1 1) Q) #b1))
                     (not (= I #b1))
                     (= ((_ extract 5 0) W) #b111111)
                     (not ((_ bit2bool 5) N))
                     (not ((_ bit2bool 3) N))
                     (not ((_ bit2bool 2) N))
                     (not ((_ bit2bool 0) N))))
           (a!13 (or (= ((_ extract 23 21) N) #b111)
                     (not ((_ bit2bool 21) W))
                     (not (= ((_ extract 1 1) Q) #b1))
                     (not (= I #b1))
                     (not ((_ bit2bool 23) W))
                     (not ((_ bit2bool 22) W))))
           (a!14 (or (not ((_ bit2bool 6) N))
                     (not (= ((_ extract 1 1) Q) #b1))
                     (not (= I #b1))
                     (= ((_ extract 7 5) W) #b111)
                     (not ((_ bit2bool 7) N))
                     (not ((_ bit2bool 5) N))))
           (a!15 (or (not ((_ bit2bool 29) W))
                     (not (= ((_ extract 1 1) Q) #b1))
                     (not (= I #b1))
                     (= ((_ extract 30 26) N) #b11111)
                     (not ((_ bit2bool 28) W))
                     (not ((_ bit2bool 26) W))
                     (not ((_ bit2bool 27) W))
                     (not ((_ bit2bool 30) W))))
           (a!16 (or (= ((_ extract 7 5) N) #b111)
                     (not ((_ bit2bool 7) W))
                     (not (= ((_ extract 1 1) Q) #b1))
                     (not (= I #b1))
                     (not ((_ bit2bool 6) W))
                     (not ((_ bit2bool 5) W))))
           (a!17 (or (not ((_ bit2bool 13) W))
                     (= ((_ extract 17 12) N) #b111111)
                     (= ((_ extract 17 12) N) #b011111)
                     (not (= ((_ extract 1 1) Q) #b1))
                     (not (= I #b1))
                     (not ((_ bit2bool 16) W))
                     (not ((_ bit2bool 15) W))
                     (not ((_ bit2bool 12) W))
                     (not ((_ bit2bool 14) W))))
           (a!18 (or (not ((_ bit2bool 21) N))
                     (not ((_ bit2bool 18) N))
                     (not (= ((_ extract 1 1) Q) #b1))
                     (not (= I #b1))
                     (= ((_ extract 21 16) W) #b111111)
                     (not ((_ bit2bool 20) N))
                     (not ((_ bit2bool 19) N))
                     (not ((_ bit2bool 17) N))
                     (not ((_ bit2bool 16) N))))
           (a!19 (or (not ((_ bit2bool 12) N))
                     (not (= ((_ extract 1 1) Q) #b1))
                     (not (= I #b1))
                     (= ((_ extract 17 12) W) #b111111)
                     (not ((_ bit2bool 17) N))
                     (not ((_ bit2bool 16) N))
                     (not ((_ bit2bool 14) N))
                     (not ((_ bit2bool 13) N))
                     (not ((_ bit2bool 15) N))))
           (a!20 (or (not ((_ bit2bool 13) W))
                     (= ((_ extract 17 12) N) #b111111)
                     (not (= ((_ extract 1 1) Q) #b1))
                     (not (= I #b1))
                     (not ((_ bit2bool 17) W))
                     (not ((_ bit2bool 16) W))
                     (not ((_ bit2bool 15) W))
                     (not ((_ bit2bool 12) W))
                     (not ((_ bit2bool 14) W))))
           (a!21 (or (= ((_ extract 15 11) N) #b11111)
                     (not ((_ bit2bool 13) W))
                     (not (= ((_ extract 1 1) Q) #b1))
                     (not (= I #b1))
                     (not ((_ bit2bool 15) W))
                     (not ((_ bit2bool 12) W))
                     (not ((_ bit2bool 14) W))
                     (not ((_ bit2bool 11) W))))
           (a!22 (or (not ((_ bit2bool 12) N))
                     (not (= ((_ extract 1 1) Q) #b1))
                     (not (= I #b1))
                     (= ((_ extract 15 11) W) #b11111)
                     (not ((_ bit2bool 14) N))
                     (not ((_ bit2bool 13) N))
                     (not ((_ bit2bool 11) N))
                     (not ((_ bit2bool 15) N))))
           (a!23 (or (not ((_ bit2bool 29) N))
                     (not (= ((_ extract 1 1) Q) #b1))
                     (not (= I #b1))
                     (= ((_ extract 31 28) W) #xf)
                     (not ((_ bit2bool 31) N))
                     (not ((_ bit2bool 30) N))
                     (not ((_ bit2bool 28) N))))
           (a!24 (or (not ((_ bit2bool 25) N))
                     (not (= ((_ extract 1 1) Q) #b1))
                     (not (= I #b1))
                     (= ((_ extract 27 24) W) #xf)
                     (not ((_ bit2bool 27) N))
                     (not ((_ bit2bool 26) N))
                     (not ((_ bit2bool 24) N))))
           (a!25 (or (not (= ((_ extract 15 12) N) #xf))
                     (not (= ((_ extract 1 1) Q) #b1))
                     (not (= I #b1))
                     (= ((_ extract 15 12) W) #xf)))
           (a!26 (or (not (= ((_ extract 11 8) N) #xf))
                     (not ((_ bit2bool 1) Q))
                     (not (= I #b1))
                     (= ((_ extract 11 8) W) #xf)))
           (a!27 (or (not ((_ bit2bool 25) N))
                     (not (= ((_ extract 1 1) Q) #b1))
                     (not (= I #b1))
                     (= ((_ extract 29 24) W) #b111111)
                     (= ((_ extract 29 24) W) #b011111)
                     (not ((_ bit2bool 27) N))
                     (not ((_ bit2bool 26) N))
                     (not ((_ bit2bool 24) N))
                     (not ((_ bit2bool 28) N)))))
     (let ((a!28 (and a!1
                      (= B #b1)
                      (or (not ((_ bit2bool 1) Q))
                          (not ((_ bit2bool 9) N))
                          (not ((_ bit2bool 6) N))
                          (not (= I #b1))
                          (= ((_ extract 10 6) W) #b11111)
                          (not ((_ bit2bool 10) N))
                          (not ((_ bit2bool 8) N))
                          (not ((_ bit2bool 7) N)))
                      a!2
                      a!3
                      a!4
                      a!5
                      (or (not ((_ bit2bool 1) Q))
                          (not ((_ bit2bool 29) N))
                          (not (= I #b1))
                          (= ((_ extract 31 27) W) #b11111)
                          (not ((_ bit2bool 31) N))
                          (not ((_ bit2bool 30) N))
                          (not ((_ bit2bool 27) N))
                          (not ((_ bit2bool 28) N)))
                      a!6
                      a!7
                      a!8
                      a!9
                      a!10
                      a!11
                      a!12
                      (or (= ((_ extract 21 16) N) #b111111)
                          (not ((_ bit2bool 1) Q))
                          (not ((_ bit2bool 21) W))
                          (not ((_ bit2bool 18) W))
                          (not (= I #b1))
                          (not ((_ bit2bool 20) W))
                          (not ((_ bit2bool 19) W))
                          (not ((_ bit2bool 17) W))
                          (not ((_ bit2bool 16) W)))
                      a!13
                      (or (= ((_ extract 11 8) N) #xf)
                          (not ((_ bit2bool 1) Q))
                          (not ((_ bit2bool 10) W))
                          (not (= I #b1))
                          (not ((_ bit2bool 8) W))
                          (not ((_ bit2bool 9) W))
                          (not ((_ bit2bool 11) W)))
                      (or (= ((_ extract 26 22) N) #b11111)
                          (not ((_ bit2bool 1) Q))
                          (not ((_ bit2bool 25) W))
                          (not (= I #b1))
                          (not ((_ bit2bool 26) W))
                          (not ((_ bit2bool 24) W))
                          (not ((_ bit2bool 23) W))
                          (not ((_ bit2bool 22) W)))
                      a!14
                      a!15
                      (or (not ((_ bit2bool 1) Q))
                          (not ((_ bit2bool 13) W))
                          (= ((_ extract 15 13) N) #b111)
                          (not (= I #b1))
                          (not ((_ bit2bool 15) W))
                          (not ((_ bit2bool 14) W)))
                      (or (not ((_ bit2bool 1) Q))
                          (not ((_ bit2bool 29) N))
                          (not (= I #b1))
                          (= ((_ extract 31 29) W) #b111)
                          (not ((_ bit2bool 31) N))
                          (not ((_ bit2bool 30) N)))
                      a!16
                      a!17
                      a!18
                      (or (not ((_ bit2bool 1) Q))
                          (not ((_ bit2bool 29) W))
                          (not (= I #b1))
                          (= ((_ extract 31 29) N) #b111)
                          (not ((_ bit2bool 30) W))
                          (not ((_ bit2bool 31) W)))
                      a!19
                      (or (not ((_ bit2bool 1) Q))
                          (not ((_ bit2bool 29) N))
                          (not (= I #b1))
                          (= ((_ extract 30 26) W) #b11111)
                          (not ((_ bit2bool 30) N))
                          (not ((_ bit2bool 27) N))
                          (not ((_ bit2bool 26) N))
                          (not ((_ bit2bool 28) N)))
                      (or (= ((_ extract 14 10) N) #b11111)
                          (not ((_ bit2bool 1) Q))
                          (not ((_ bit2bool 10) W))
                          (not ((_ bit2bool 13) W))
                          (not (= I #b1))
                          (not ((_ bit2bool 12) W))
                          (not ((_ bit2bool 14) W))
                          (not ((_ bit2bool 11) W)))
                      (or (= ((_ extract 10 6) N) #b11111)
                          (not ((_ bit2bool 1) Q))
                          (not ((_ bit2bool 10) W))
                          (not ((_ bit2bool 7) W))
                          (not (= I #b1))
                          (not ((_ bit2bool 8) W))
                          (not ((_ bit2bool 6) W))
                          (not ((_ bit2bool 9) W)))
                      a!20
                      a!21
                      a!22
                      a!23
                      a!24
                      (or (not ((_ bit2bool 1) Q))
                          (not ((_ bit2bool 25) W))
                          (not (= I #b1))
                          (= ((_ extract 27 24) N) #xf)
                          (not ((_ bit2bool 26) W))
                          (not ((_ bit2bool 24) W))
                          (not ((_ bit2bool 27) W)))
                      a!25
                      a!26
                      (or (not ((_ bit2bool 1) Q))
                          (= ((_ extract 29 24) N) #b111111)
                          (not ((_ bit2bool 25) W))
                          (not ((_ bit2bool 29) W))
                          (not (= I #b1))
                          (not ((_ bit2bool 28) W))
                          (not ((_ bit2bool 26) W))
                          (not ((_ bit2bool 24) W))
                          (not ((_ bit2bool 27) W)))
                      a!27)))
       (= (INV!slice!1 A
                       B
                       C
                       D
                       E
                       F
                       G
                       H
                       I
                       J
                       K
                       L
                       M
                       N
                       O
                       P
                       Q
                       R
                       S
                       T
                       U
                       V
                       W
                       X
                       Y
                       Z
                       A1
                       B1
                       C1
                       D1
                       E1
                       F1
                       G1
                       H1
                       I1
                       J1
                       K1
                       L1
                       M1
                       N1
                       O1
                       P1
                       Q1
                       R1
                       S1
                       T1
                       U1
                       V1
                       W1
                       X1
                       Y1
                       Z1
                       A2
                       B2
                       C2
                       D2
                       E2
                       F2
                       G2
                       H2
                       I2
                       J2
                       K2
                       L2
                       M2
                       N2
                       O2
                       P2
                       Q2
                       R2
                       S2
                       T2
                       U2
                       V2)
          a!28)))
     :weight 0))
